
Gurobi 9.1.2 (linux64) logging started Thu Aug 10 02:41:36 2023

Changed value of parameter LogFile to max-ls_r=('3', '2').log
   Prev:   Default: 
Changed value of parameter MIPFocus to 1
   Prev: 0  Min: 0  Max: 3  Default: 0
Changed value of parameter Threads to 32
   Prev: 0  Min: 0  Max: 1024  Default: 0
Changed value of parameter TimeLimit to 3600.0
   Prev: inf  Min: 0.0  Max: inf  Default: inf
Warning: variable name "X[('6', '6'),('7', '6')]" has a space
Warning: constraint name "flow-constr-t0-v('6', '3')" has a space
Warning: to let Gurobi read it back, use rlp format
Gurobi Optimizer version 9.1.2 build v9.1.2rc0 (linux64)
Thread count: 16 physical cores, 32 logical processors, using up to 32 threads
Optimize a model with 2931 rows, 2688 columns and 10256 nonzeros
Model fingerprint: 0xcbcc0b18
Variable types: 256 continuous, 2432 integer (2432 binary)
Coefficient statistics:
  Matrix range     [1e+00, 7e+04]
  Objective range  [2e-01, 2e-01]
  Bounds range     [1e+00, 3e+04]
  RHS range        [1e+00, 7e+04]
Presolve removed 399 rows and 408 columns
Presolve time: 0.04s
Presolved: 2532 rows, 2280 columns, 17208 nonzeros
Variable types: 256 continuous, 2024 integer (2024 binary)
Found heuristic solution: objective 33012.749996

Root relaxation: objective 6.400000e+01, 146 iterations, 0.00 seconds

    Nodes    |    Current Node    |     Objective Bounds      |     Work
 Expl Unexpl |  Obj  Depth IntInf | Incumbent    BestBd   Gap | It/Node Time

     0     0   64.00000    0    8 33012.7500   64.00000   100%     -    0s
H    0     0                     157.5000000   64.00000  59.4%     -    0s
H    0     0                     157.2500000   64.00000  59.3%     -    0s
     0     0   64.00000    0   25  157.25000   64.00000  59.3%     -    0s
H    0     0                     116.5833333   64.00000  45.1%     -    0s
H    0     0                     101.5000000   64.00000  36.9%     -    0s
     0     0   64.00000    0   33  101.50000   64.00000  36.9%     -    0s
     0     0   64.00000    0   20  101.50000   64.00000  36.9%     -    0s
H    0     0                      94.0000000   64.00000  31.9%     -    0s
H    0     0                      78.0000000   64.00000  17.9%     -    0s
H    0     0                      77.2500000   64.00000  17.2%     -    0s
     0     0   64.00000    0   19   77.25000   64.00000  17.2%     -    0s
H    0     0                      74.5000000   64.00000  14.1%     -    0s
     0     0   64.00000    0   24   74.50000   64.00000  14.1%     -    0s
H    0     0                      73.7500000   64.00000  13.2%     -    0s
H    0     0                      73.2500000   64.00000  12.6%     -    0s
     0     0   64.00000    0   24   73.25000   64.00000  12.6%     -    0s
H    0     0                      72.2500000   64.00000  11.4%     -    0s
     0     0   64.00000    0   47   72.25000   64.00000  11.4%     -    0s
     0     0   64.00000    0   10   72.25000   64.00000  11.4%     -    0s
H    0     0                      69.7500000   64.00000  8.24%     -    0s
H    0     0                      69.5000000   64.00000  7.91%     -    0s
H    0     2                      69.2500000   64.00000  7.58%     -    0s
     0     2   64.00000    0   10   69.25000   64.00000  7.58%     -    0s
H    1     4                      69.0000000   64.00000  7.25%   167    1s
H   31    64                      68.0000000   64.00000  5.88%  19.7    1s
H   32    64                      67.5000000   64.00000  5.19%  19.1    1s
H   95   128                      66.5000000   64.00000  3.76%  11.7    3s
H   97   128                      66.2500000   64.00000  3.40%  11.5    3s
H   97   128                      64.0000000   64.00000  0.00%  11.5    3s

Cutting planes:
  Cover: 8
  Implied bound: 14
  Clique: 1
  MIR: 7
  Flow cover: 27
  RLT: 21
  Relax-and-lift: 1

Explored 127 nodes (4703 simplex iterations) in 3.86 seconds
Thread count was 32 (of 32 available processors)

Solution count 10: 64 66.25 66.5 ... 72.25

Optimal solution found (tolerance 1.00e-04)
Best objective 6.400000000000e+01, best bound 6.400000000000e+01, gap 0.0000%
